
  17    4
  10   10   10   10

   0   0   0   0   0   2 2 3 
   4  10  10  10  10   6 16 12 7 6 5 4 
   6  10  10  10  10   4 9 7 5 4 
   6  10  10  10  10   3 15 10 8 
   1  10  10  10  10   3 15 10 8 
   9  10  10  10  10   2 15 10 
  10  10  10  10  10   1 8 
   4  10  10  10  10   2 14 11 
   3  10  10  10  10   1 10 
   1  10  10  10  10   2 14 13 
   5  10  10  10  10   1 13 
   8  10  10  10  10   1 13 
   6  10  10  10  10   1 17
   3  10  10  10  10   1 17
   4  10  10  10  10   1 17
   8  10  10  10  10   1 17
   0   0   0   0   0   0 
